88 57
67 22
39 90
58 48
89 23
70 9
31 63
34 5
33 99
18 124
68 40
5 22
81 25
85 52
9 145
10 158
56 94
80 9
3 193
29 110
1 78
27 30
3 64
82 61
7 70
45 13
43 75
6 52
22 191
63 21
39 6
1 73
79 9
1 188
74 51
30 14
30 40
23 65
5 121
59 34
55 22
88 38
34 68
59 8
5 10
8 128
21 146
74 6
14 182
27 53
